;; Mutation-Based Equivalence Benchmark
;; Source:     AutomatArk / instance13202.smt2
;; Mutations:  literal_char_inc, range_expand_hi, range_shrink_lo
;; Status:     sat
;;
;; Original regex vs mutated regex
;; Equivalence check: unsat ⟺ L(R1) = L(R2)

(set-info :smt-lib-version 2.6)
(set-info :category "mutation")
(set-info :status sat)
(set-logic QF_S)


;; R1: original
;; R2: mutated (literal_char_inc, range_expand_hi, range_shrink_lo)
(assert
  (not
    (=
      (re.union (re.++ (str.to_re "\u{a}GIR") ((_ re.loop 0 2) (re.union (str.to_re " ") (str.to_re "\u{9}") (str.to_re "\u{a}") (str.to_re "\u{c}") (str.to_re "\u{d}"))) (str.to_re "0AA")) (re.++ (re.union (re.range "A" "P") (re.range "R" "U") (str.to_re "W") (str.to_re "Y") (str.to_re "Z")) (re.range "0" "9") (re.opt (re.union (re.range "0" "9") (re.range "A" "H") (str.to_re "J") (str.to_re "K") (re.range "S" "U") (str.to_re "W")))) (re.++ ((_ re.loop 0 2) (re.union (str.to_re " ") (str.to_re "\u{9}") (str.to_re "\u{a}") (str.to_re "\u{c}") (str.to_re "\u{d}"))) (re.union (re.range "A" "P") (re.range "R" "U") (str.to_re "W") (str.to_re "Y") (str.to_re "Z")) (re.union (re.range "A" "H") (re.range "K" "Y")) (re.range "0" "9") (re.opt (re.union (re.range "0" "9") (str.to_re "A") (str.to_re "B") (str.to_re "E") (str.to_re "H") (str.to_re "M") (str.to_re "N") (str.to_re "P") (str.to_re "R") (re.range "V" "Y"))) (re.range "0" "9") (re.union (str.to_re "A") (str.to_re "B") (re.range "D" "H") (str.to_re "J") (str.to_re "L") (str.to_re "N") (re.range "P" "U") (re.range "W" "Z")) (re.union (str.to_re "A") (str.to_re "B") (re.range "D" "H") (str.to_re "J") (str.to_re "L") (str.to_re "N") (re.range "P" "U") (re.range "W" "Z"))))
      (re.union (re.++ (str.to_re "\u{a}GIR") ((_ re.loop 0 2) (re.union (str.to_re " ") (str.to_re "\u{9}") (str.to_re "\u{a}") (str.to_re "\u{c}") (str.to_re "\u{d}"))) (str.to_re "0AA")) (re.++ (re.union (re.range "A" "P") (re.range "R" "U") (str.to_re "W") (str.to_re "Y") (str.to_re "Z")) (re.range "0" "9") (re.opt (re.union (re.range "0" "9") (re.range "A" "H") (str.to_re "J") (str.to_re "K") (re.range "T" "U") (str.to_re "W")))) (re.++ ((_ re.loop 0 2) (re.union (str.to_re " ") (str.to_re "\u{9}") (str.to_re "\u{a}") (str.to_re "\u{c}") (str.to_re "\u{d}"))) (re.union (re.range "A" "P") (re.range "R" "U") (str.to_re "W") (str.to_re "Y") (str.to_re "Z")) (re.union (re.range "A" "H") (re.range "K" "Y")) (re.range "0" "9") (re.opt (re.union (re.range "0" "9") (str.to_re "A") (str.to_re "B") (str.to_re "E") (str.to_re "H") (str.to_re "M") (str.to_re "N") (str.to_re "P") (str.to_re "R") (re.range "V" "Y"))) (re.range "0" ":") (re.union (str.to_re "A") (str.to_re "B") (re.range "D" "H") (str.to_re "J") (str.to_re "L") (str.to_re "N") (re.range "P" "U") (re.range "W" "Z")) (re.union (str.to_re "A") (str.to_re "C") (re.range "D" "H") (str.to_re "J") (str.to_re "L") (str.to_re "N") (re.range "P" "U") (re.range "W" "Z")))))))

(check-sat)
(exit)
